Route #1: 47 49 191 206 149 46 201 50 173 59 115 182 136 97 175 180 166 76 33 80
Route #2: 10 39 38 73 125 159 195 56 81 22 94 212 156 2 147 91 62 48 144 45 135
Route #3: 96 137 13 120 93 181 82 78 27 168 117 53 186 200 64 83 7 193
Route #4: 124 167 40 157 104 204 177 130 141 188 88 74 29 43 192 171 178 119 194 19 15 139 77 87
Route #5: 99 187 163 17 63 68 11 132 129 5 41 98 34 133 160 92 36 55
Route #6: 179 131 197 79 42 108 176 110 18 142 60 199 3 196 30 162 189 210
Route #7: 58 158 103 207 35 1 165 128 57 134 111 198 126 203 123 72 4
Route #8: 140 112 154 75 100 85 44 145 16 114 122 113 95 184 54 150 90 86 146 9 21 155
Route #9: 169 6 116 31 107 32 121 12 127 202 211 174 105 23 70 143 101 138
Route #10: 67 28 52 25 170 8 61 89 69 14 66 37 164 51 183 109 205 20 161 190 153
Route #11: 172 106 65 71 152 209 26 213 148 102 185 118 208 24 84 151
